119 48 011 1
1
163 113 1
135 114 1
110 115 1
93 116 1
173 117 1
110 118 1
75 119 1
149 108 1
92 109 1
153 110 1
113 111 1
125 112 1
110 113 1
137 114 1
116 115 1
138 116 1
155 117 1
76 118 1
110 119 1
71 108 1
113 109 1
150 110 1
117 111 1
90 112 1
142 113 1
120 114 1
100 115 1
141 116 1
166 117 1
164 118 1
169 119 1
155 108 1
155 109 1
210 110 1
61 111 1
105 112 1
88 113 1
82 114 1
146 115 1
117 116 1
138 117 1
161 118 1
132 119 1
105 108 1
188 109 1
112 110 1
109 111 1
166 112 1
1
1
1
1
1
1
1
1
1
1
1
1
1
1
1
1
1
1
1
1
1
1
1
1
1
1
1
1
1
1
1
1
1
1
1
1
1
1
1
1
1
1
1
1
1
1
1
1
1
1
1
1
1
1
1
1
1
1
1 9 148 21 70 33 154 45 104
1 10 91 22 112 34 154 46 187
1 11 152 23 149 35 209 47 111
1 12 112 24 116 36 60 48 108
1 13 124 25 89 37 104 49 165
1 2 162 14 109 26 141 38 87
1 3 134 15 136 27 119 39 81
1 4 109 16 115 28 99 40 145
1 5 92 17 137 29 140 41 116
1 6 172 18 154 30 165 42 137
1 7 109 19 75 31 163 43 160
1 8 74 20 109 32 168 44 131
